Route #1: 14 44 24 15 34 36 2 8 20 38 17 35 40 12 43 27 45 3 22 50 21 54
Route #2: 23 10 41 32 29 7 51 49 39 47 5 37 56 31 18 28 19 11 4 57 33
Route #3: 6 42 26 16 52 9 48 30 13 53 25 46 55
Route #4: 1
Route #5: 
Route #6: 
Route #7: 
Route #8: 
Route #9: 
cost 2028.790325775964
